results_rootrelaxation/bin024_050_000.srr.sol
solution status: optimal solution found
objective value:                                    0
_var7036_                           0.117357603786345 	(obj:0)
_var7075_                           0.186184645490094 	(obj:0)
_var7084_                          0.0325716127945489 	(obj:0)
_var7086_                           0.203116028473513 	(obj:0)
_var7087_                           0.291325321552008 	(obj:0)
_var7088_                            0.19434280964519 	(obj:0)
_var7090_                          0.0676539433782692 	(obj:0)
_var7097_                           0.162651345466011 	(obj:0)
_var7102_                           0.263423781442697 	(obj:0)
_var7110_                           0.199833910003179 	(obj:0)
_var7113_                           0.144593695756514 	(obj:0)
_var7119_                           0.122422694222808 	(obj:0)
_var7123_                            0.25053018401323 	(obj:0)
_var7124_                            0.06186003153841 	(obj:0)
_var7127_                         0.00500235776324026 	(obj:0)
_var7129_                            0.27281437618106 	(obj:0)
_var7133_                          0.0617343704832289 	(obj:0)
_var7135_                           0.206538967910278 	(obj:0)
_var7140_                           0.157822909685897 	(obj:0)
_var7142_                          0.0525136460991504 	(obj:0)
_var7143_                           0.101060638277877 	(obj:0)
_var7144_                          0.0274768772928792 	(obj:0)
_var7146_                           0.015469671694536 	(obj:0)
_var7147_                           0.104716887454542 	(obj:0)
_var7148_                          0.0423709371183327 	(obj:0)
_var7150_                           0.142170400283746 	(obj:0)
_var7151_                           0.118265752050056 	(obj:0)
_var7152_                          0.0280445810411591 	(obj:0)
_var7153_                           0.108808968004208 	(obj:0)
_var7157_                           0.203178610612931 	(obj:0)
_var7160_                           0.153420298112868 	(obj:0)
_var7163_                          0.0421046280601736 	(obj:0)
_var7166_                           0.161520049496391 	(obj:0)
_var7168_                          0.0586833596849829 	(obj:0)
_var7169_                          0.0636246310466059 	(obj:0)
_var7170_                            0.11439357877054 	(obj:0)
_var7172_                          0.0269370972486786 	(obj:0)
_var7176_                           0.162972321422718 	(obj:0)
_var7178_                         0.000315493126385208 	(obj:0)
_var7179_                          0.0163724702063941 	(obj:0)
_var7180_                           0.050575095571975 	(obj:0)
_var7182_                           0.321682124312971 	(obj:0)
_var7183_                          0.0848590990375605 	(obj:0)
_var7191_                           0.204833147795747 	(obj:0)
_var7192_                          0.0624760138205462 	(obj:0)
_var7195_                         0.000429052273836067 	(obj:0)
_var7196_                          0.0790039567699515 	(obj:0)
_var7198_                          0.0469887910406309 	(obj:0)
_var7200_                           0.150590723027309 	(obj:0)
_var7201_                           0.019592065987945 	(obj:0)
_var7202_                          0.0847643723181321 	(obj:0)
_var7203_                          0.0928596310011095 	(obj:0)
_var7205_                             0.0458716304407 	(obj:0)
_var7206_                          0.0959361894841649 	(obj:0)
_var7207_                          0.0122667082755869 	(obj:0)
_var7208_                           0.143337873580847 	(obj:0)
_var7210_                          0.0484848517726477 	(obj:0)
_var7211_                           0.120076158226085 	(obj:0)
_var7213_                           0.148477880001405 	(obj:0)
_var7214_                           0.218551870219681 	(obj:0)
_var7215_                            0.13204017827189 	(obj:0)
_var7217_                           0.233247772306986 	(obj:0)
_var7219_                          0.0769352987705698 	(obj:0)
_var7222_                           0.105075796644702 	(obj:0)
_var7229_                           0.117238458744081 	(obj:0)
_var7232_                          0.0577876508316628 	(obj:0)
_var7234_                            0.10380373897524 	(obj:0)
_var7236_                           0.202528202231792 	(obj:0)
_var7237_                          0.0595662297860322 	(obj:0)
_var7247_                           0.248972780476993 	(obj:0)
_var7248_                          0.0328377339176676 	(obj:0)
_var7254_                            0.10525996510591 	(obj:0)
_var7256_                           0.255720889606224 	(obj:0)
_var7257_                           0.130714125131289 	(obj:0)
_var7258_                          0.0953661393443702 	(obj:0)
_var7259_                          0.0270523190795878 	(obj:0)
_var7263_                          0.0674557399088844 	(obj:0)
_var7267_                           0.131357626059517 	(obj:0)
_var7268_                          0.0558516574145529 	(obj:0)
_var7270_                          0.0109067749551607 	(obj:0)
_var7272_                          0.0412176939736077 	(obj:0)
_var7275_                           0.290072196778346 	(obj:0)
_var7276_                            0.27111260283321 	(obj:0)
_var7281_                           0.222329132684628 	(obj:0)
_var7283_                           0.172356553200152 	(obj:0)
_var7286_                          0.0306299973732046 	(obj:0)
_var7289_                           0.117163616718903 	(obj:0)
_var7290_                          0.0780544635232606 	(obj:0)
_var7292_                           0.208605630195044 	(obj:0)
_var7294_                         0.00451243958245881 	(obj:0)
_var7301_                           0.138952896368839 	(obj:0)
_var7302_                         0.00239077536272302 	(obj:0)
_var7305_                          0.0965175957732229 	(obj:0)
_var7307_                          0.0866264444418864 	(obj:0)
_var7308_                           0.154414357529277 	(obj:0)
_var7309_                           0.123794385453386 	(obj:0)
_var7310_                          0.0540727102856827 	(obj:0)
_var7311_                          0.0988818501624945 	(obj:0)
_var7312_                          0.0508896324099484 	(obj:0)
_var7313_                           0.106530193073038 	(obj:0)
_var7316_                          0.0620319338789521 	(obj:0)
_var7318_                           0.116082764362252 	(obj:0)
_var7319_                           0.322483520130092 	(obj:0)
_var7324_                           0.135680899610919 	(obj:0)
_var7328_                         0.00499831883194604 	(obj:0)
_var7329_                          0.0887135388282174 	(obj:0)
_var7332_                         0.00183113680599075 	(obj:0)
_var7333_                           0.100088822726141 	(obj:0)
_var7334_                          0.0458309182684565 	(obj:0)
_var7335_                          0.0312912414762906 	(obj:0)
_var7337_                           0.244913717896301 	(obj:0)
_var7339_                           0.125391635887496 	(obj:0)
_var7342_                          0.0926396551953953 	(obj:0)
_var7345_                           0.232974762089584 	(obj:0)
_var7346_                          0.0713029359621291 	(obj:0)
_var7348_                           0.297130973470126 	(obj:0)
_var7349_                           0.143694456885956 	(obj:0)
_var7353_                          0.0765549071543906 	(obj:0)
_var7354_                          0.0573929222577763 	(obj:0)
_var7356_                           0.128372122715146 	(obj:0)
_var7360_                          0.0845859573221469 	(obj:0)
_var7365_                          0.0581962313916003 	(obj:0)
_var7366_                           0.153866182388308 	(obj:0)
_var7367_                          0.0322198765397675 	(obj:0)
_var7368_                          0.0688382055185198 	(obj:0)
_var7369_                           0.135809934261342 	(obj:0)
_var7370_                          0.0183658460592935 	(obj:0)
_var7376_                          0.0411026844585218 	(obj:0)
_var7380_                           0.179437321378866 	(obj:0)
_var7381_                           0.284799549830399 	(obj:0)
_var7384_                          0.0191644165131039 	(obj:0)
_var7386_                          0.0893541147779848 	(obj:0)
_var7387_                          0.0465622677945639 	(obj:0)
_var7389_                           0.162427529563006 	(obj:0)
_var7391_                           0.158318903936276 	(obj:0)
_var7392_                            0.17066021195932 	(obj:0)
_var7393_                           0.108855521310878 	(obj:0)
_var7397_                          0.0780274631860124 	(obj:0)
_var7399_                          0.0370605063898011 	(obj:0)
_var7400_                           0.206611873845006 	(obj:0)
_var7402_                           0.177680264399565 	(obj:0)
_var7405_                           0.149544643133232 	(obj:0)
_var7406_                          0.0235936659806596 	(obj:0)
_var7411_                           0.031706407690138 	(obj:0)
_var7412_                          0.0781088557117635 	(obj:0)
_var7418_                          0.0276133895704015 	(obj:0)
_var7419_                          0.0162376718102417 	(obj:0)
_var7420_                          0.0513341409761183 	(obj:0)
_var7421_                          0.0776417555665491 	(obj:0)
_var7422_                          0.0639135790621426 	(obj:0)
_var7424_                           0.110690150386661 	(obj:0)
_var7425_                           0.130355439052301 	(obj:0)
_var7428_                         0.00498940791781629 	(obj:0)
_var7429_                             0.1139356462947 	(obj:0)
_var7431_                          0.0593117311301957 	(obj:0)
_var7432_                         0.00337404581771958 	(obj:0)
_var7433_                          0.0204192197457885 	(obj:0)
_var7434_                           0.045483763549971 	(obj:0)
_var7437_                           0.031398974365646 	(obj:0)
_var7440_                          0.0173000762362829 	(obj:0)
_var7441_                           0.111881699321972 	(obj:0)
_var7445_                         0.00565770853275722 	(obj:0)
_var7446_                          0.0646486245095898 	(obj:0)
_var7449_                           0.109827351027583 	(obj:0)
_var7453_                           0.114443838887935 	(obj:0)
_var7454_                          0.0642580226617085 	(obj:0)
_var7455_                           0.030075278515497 	(obj:0)
_var7456_                           0.125516366530507 	(obj:0)
_var7461_                          0.0909775672000027 	(obj:0)
_var7462_                          0.0848912957118002 	(obj:0)
_var7463_                          0.0388266364000271 	(obj:0)
_var7464_                          0.0842669384697498 	(obj:0)
_var7466_                          0.0399817280580191 	(obj:0)
_var7467_                         0.00650889770789778 	(obj:0)
_var7468_                          0.0113298215344432 	(obj:0)
_var7469_                          0.0556930904797003 	(obj:0)
_var7470_                          0.0801406868511113 	(obj:0)
_var7471_                          0.0921663572416885 	(obj:0)
_var7472_                           0.143189790062968 	(obj:0)
_var7473_                           0.130573072851988 	(obj:0)
_var7474_                          0.0642675583198234 	(obj:0)
_var7476_                          0.0584995106744375 	(obj:0)
_var7477_                          0.0166575134467468 	(obj:0)
_var7478_                           0.050362264589195 	(obj:0)
_var7481_                          0.0166879606315927 	(obj:0)
_var7482_                          0.0033848123098142 	(obj:0)
_var7483_                          0.0834847286944711 	(obj:0)
_var7485_                         0.000971556603705653 	(obj:0)
_var7486_                          0.0765991029350959 	(obj:0)
_var7488_                          0.0435229184856867 	(obj:0)
_var7489_                          0.0487581699404695 	(obj:0)
_var7492_                          0.0825787896249376 	(obj:0)
_var7493_                          0.0115573251135988 	(obj:0)
_var7494_                           0.169866076660006 	(obj:0)
_var7497_                            0.05512236318872 	(obj:0)
_var7499_                          0.0151409207332019 	(obj:0)
_var7500_                           0.106961621959703 	(obj:0)
_var7502_                         0.000886465594986355 	(obj:0)
_var7503_                          0.0292858550858838 	(obj:0)
_var7504_                         0.00910807781687509 	(obj:0)
_var7505_                           0.114041790342235 	(obj:0)
_var7507_                           0.155563770029979 	(obj:0)
_var7508_                          0.0543079806930665 	(obj:0)
_var7509_                          0.0806854930823208 	(obj:0)
_var7510_                           0.025768562755957 	(obj:0)
_var7512_                          0.0341576643865079 	(obj:0)
_var7513_                          0.0305213260814161 	(obj:0)
_var7520_                          0.0152650282260257 	(obj:0)
_var7522_                           0.237710688284161 	(obj:0)
_var7526_                          0.0894117371750524 	(obj:0)
_var7529_                          0.0330741958447004 	(obj:0)
_var7530_                          0.0293624217271846 	(obj:0)
_var7534_                          0.0946724934929151 	(obj:0)
_var7537_                          0.0496324009895563 	(obj:0)
_var7540_                          0.0848673648627025 	(obj:0)
_var7541_                          0.0186109713837963 	(obj:0)
_var7542_                         0.00178973856521574 	(obj:0)
_var7545_                          0.0980355309649071 	(obj:0)
_var7547_                          0.0585013636912283 	(obj:0)
_var7551_                          0.0649843329449105 	(obj:0)
_var7552_                           0.016132420931885 	(obj:0)
_var7553_                          0.0370897121005839 	(obj:0)
_var7554_                           0.104688638323451 	(obj:0)
_var7555_                          0.0823747407234303 	(obj:0)
_var7557_                          0.0919292472953045 	(obj:0)
_var7558_                         0.000221682521123603 	(obj:0)
_var7560_                          0.0245708574446565 	(obj:0)
_var7562_                          0.0307055506283141 	(obj:0)
_var7564_                          0.0660299658469001 	(obj:0)
_var7565_                          0.0327925187473608 	(obj:0)
_var7570_                          0.0256523699666426 	(obj:0)
_var7571_                          0.0102678635245722 	(obj:0)
_var7572_                          0.0242991939093264 	(obj:0)
_var7575_                          0.0614286099952456 	(obj:0)
_var7576_                          0.0369078764948466 	(obj:0)
_var7577_                          0.0955701767403143 	(obj:0)
_var7578_                          0.0982174299083711 	(obj:0)
_var7579_                            0.05380350679258 	(obj:0)
_var7580_                          0.0107103636465748 	(obj:0)
_var7582_                          0.0417021817628119 	(obj:0)
_var7584_                          0.0626023832854223 	(obj:0)
_var7586_                         0.00439123232861115 	(obj:0)
_var7587_                         0.00970874845752663 	(obj:0)
_var7588_                          0.0960036906676345 	(obj:0)
_var7591_                          0.0253909577813693 	(obj:0)
_var7592_                          0.0246859667027792 	(obj:0)
_var7593_                          0.0317486314410675 	(obj:0)
_var7594_                          0.0286227797143135 	(obj:0)
_var7595_                          0.0930460184355635 	(obj:0)
_var7599_                          0.0237277315778447 	(obj:0)
_var7602_                         0.00134751176527585 	(obj:0)
_var7604_                          0.0542833122308349 	(obj:0)
_var7605_                          0.0409211393665115 	(obj:0)
_var7606_                          0.0108849025574555 	(obj:0)
_var7607_                          0.0350874607047978 	(obj:0)
_var7609_                          0.0204275492961998 	(obj:0)
_var7610_                          0.0253710698239041 	(obj:0)
_var7611_                          0.0190735828958631 	(obj:0)
_var7612_                          0.0470209682957153 	(obj:0)
_var7613_                          0.0514087910873672 	(obj:0)
_var7614_                          0.0654616513707559 	(obj:0)
_var7616_                         0.000784432171818783 	(obj:0)
_var7621_                          0.0309698875148685 	(obj:0)
_var7624_                         0.00226903050275423 	(obj:0)
_var7625_                          0.0220935717835359 	(obj:0)
_var7629_                          0.0685255085875852 	(obj:0)
_var7631_                          0.0041525366108334 	(obj:0)
_var7632_                          0.0103459109094405 	(obj:0)
_var7636_                          0.0162818651381036 	(obj:0)
_var7637_                         0.00695613156777536 	(obj:0)
_var7638_                          0.0577984313124195 	(obj:0)
_var7639_                          0.0187668809657724 	(obj:0)
_var7640_                          0.0694684319282078 	(obj:0)
_var7641_                         0.00690864952668975 	(obj:0)
_var7643_                          0.0438429457062524 	(obj:0)
